0 0 0 0
0 1 0 0
0 2 0 0
0 3 2 0
0 4 0 3
0 5 0 5
0 6 0 3
0 7 0 11
0 8 1 7
0 9 2 5
0 10 2 7
0 11 2 3
0 12 0 7
0 13 0 11
0 14 0 9
0 15 0 11
0 16 0 12
0 17 1 13
0 18 0 15
0 19 0 17
0 20 0 12
0 21 0 16
0 22 0 15
0 23 0 20
0 24 0 17
0 25 0 21
0 26 0 21
0 27 0 19
0 28 0 26
0 29 0 26
0 30 0 26
0 31 0 32
